W=9;
H=7;

MAX_TIME=20;
MAX_TRACKS=18;
SEMAPHORE_SUPPLY=2;

TARGET=(7,9);

TRAINS=[(3,1,RIGHT),(1,9,LEFT),(2,2,RIGHT)];
DECOYS=[];

INIT_POS=[
(1,2,STRAIGHT_RL),
(1,4,ROCK),
(1,9,STRAIGHT_RL),
(2,2,STRAIGHT_RL),
(2,4,ROCK),
(2,5,ROCK),
(3,1,STRAIGHT_RL),
(3,5,STRAIGHT_RL),
(4,3,ROCK),
(4,4,ROCK),
(4,6,STRAIGHT_TD),
(5,6,STRAIGHT_TD),
(7,4,STRAIGHT_RL),
(7,9,STRAIGHT_RL),
];
TUNNEL_PAIRS=[
  (1, 1, RIGHT, 7, 3, RIGHT),
];

GATES=[
(7,4,1,false),
];
ACTIVATIONS=[
(4,6,1),
];

DSWITCHES=[];
STATIONS=[
  (1,2,3),
  (3,5,1),
];
